p cnf 160 311
9  5  -6  0
13  9  10  0
-17  -13  14  0
-25  -21  -22  0
-41  -37  38  0
-49  -45  -46  0
53  -49  -50  0
-57  53  -54  0
-61  -57  58  0
69  65  -66  0
-81  -77  78  0
85  81  82  0
89  85  86  0
-93  -89  -90  0
-97  -93  -94  0
101  -97  98  0
105  -101  102  0
109  105  106  0
113  109  -110  0
117  113  -114  0
125  -121  -122  0
-129  -125  -126  0
133  -129  -130  0
-137  133  -134  0
-145  -141  142  0
157  153  154  0
-6  -5  1  0
-6  -1  -2  0
-6  -2  -3  0
10  9  5  0
10  5  6  0
-10  -6  7  0
-14  -13  -10  0
-18  -17  -14  0
-18  -17  -13  0
-18  -14  -15  0
22  21  18  0
-22  -17  18  0
-22  -18  19  0
26  -25  -22  0
26  -25  21  0
26  -21  -22  0
30  29  -25  0
-30  -25  -26  0
-30  26  -27  0
34  33  -29  0
34  30  -31  0
-38  -37  33  0
42  -41  -38  0
42  -38  -39  0
46  41  -42  0
-46  -42  43  0
-50  -49  46  0
-50  46  47  0
-54  -49  50  0
54  50  51  0
58  57  -54  0
58  -54  55  0
-62  61  58  0
-62  58  59  0
-66  65  -62  0
66  -61  62  0
66  -62  -63  0
-70  65  -66  0
74  -73  -70  0
74  73  69  0
74  69  70  0
-78  77  -74  0
-78  77  73  0
-78  -73  74  0
-82  -81  -78  0
82  81  -77  0
82  -78  -79  0
-86  85  82  0
86  -81  -82  0
-86  82  83  0
90  89  -86  0
90  -89  85  0
-90  -85  -86  0
-90  86  87  0
-94  93  -90  0
-94  89  90  0
-94  -90  91  0
98  -97  94  0
-98  -97  93  0
-98  -93  -94  0
98  -94  -95  0
-102  101  98  0
-102  97  -98  0
102  98  99  0
106  -105  102  0
106  -101  102  0
110  -109  -106  0
-110  109  105  0
-110  105  -106  0
-114  113  -110  0
-114  113  -109  0
114  -110  111  0
118  117  114  0
-118  117  -113  0
118  113  114  0
118  -114  115  0
122  121  118  0
-122  -121  117  0
-122  117  -118  0
122  118  119  0
126  -125  122  0
126  125  121  0
126  -121  -122  0
-126  122  123  0
-130  126  -127  0
134  -129  -130  0
-134  130  131  0
138  137  -134  0
-138  137  133  0
138  134  135  0
-142  141  -138  0
-142  138  -139  0
-146  145  -141  0
-146  142  -143  0
150  -149  146  0
150  -149  145  0
154  -153  -149  0
154  -149  -150  0
-154  -150  151  0
-158  153  154  0
-7  -6  2  0
7  2  3  0
-7  -3  4  0
11  -10  7  0
11  10  6  0
-11  -6  7  0
-15  -14  10  0
15  10  11  0
15  11  -12  0
-19  -18  14  0
19  -14  15  0
-23  22  19  0
-27  -23  24  0
-31  30  27  0
-31  30  -26  0
31  -26  -27  0
31  -27  -28  0
-35  34  31  0
-35  -34  -30  0
-35  30  -31  0
-39  -38  -35  0
39  34  -35  0
39  35  36  0
-43  42  39  0
43  42  38  0
-47  -46  -43  0
-47  43  44  0
51  -50  -47  0
-51  -46  -47  0
51  47  -48  0
-55  -54  51  0
55  -54  50  0
-55  -50  -51  0
-55  -51  -52  0
59  -58  -55  0
59  -54  55  0
-63  62  -59  0
63  59  -60  0
-67  -66  -63  0
67  66  -62  0
-67  62  63  0
-67  63  -64  0
71  70  -66  0
71  66  67  0
71  67  68  0
-75  -74  71  0
-79  -78  -75  0
79  78  74  0
-79  74  75  0
79  -75  76  0
83  82  78  0
-83  -78  -79  0
83  -79  80  0
87  86  -82  0
-87  82  83  0
87  -83  84  0
-91  -86  -87  0
91  87  88  0
-99  -98  -95  0
-99  98  -94  0
99  -94  95  0
103  102  98  0
-103  -99  -100  0
107  -106  103  0
107  106  -102  0
107  102  103  0
-111  -110  -107  0
111  110  106  0
111  -106  107  0
-111  -107  108  0
-115  -114  111  0
115  -111  112  0
119  118  114  0
119  115  -116  0
123  122  -118  0
-123  118  119  0
123  -119  -120  0
-127  126  122  0
127  122  -123  0
131  -130  127  0
-135  134  131  0
-135  -134  130  0
135  -130  131  0
139  -138  -134  0
-139  -135  136  0
-143  142  -138  0
143  138  -139  0
143  139  140  0
147  146  -142  0
-147  142  143  0
147  -143  -144  0
151  -150  147  0
151  -150  146  0
151  146  147  0
151  147  -148  0
155  -150  151  0
155  151  152  0
-159  158  155  0
-159  -158  -154  0
159  154  155  0
159  -155  -156  0
-8  7  4  0
-8  7  3  0
-12  -11  -8  0
-12  11  -7  0
-16  15  12  0
16  -15  11  0
20  -19  16  0
20  19  -15  0
20  15  -16  0
24  23  20  0
-24  23  -19  0
24  19  -20  0
-28  -27  -24  0
28  -23  -24  0
-32  -31  -28  0
36  35  -32  0
36  -35  31  0
36  31  -32  0
-40  -39  36  0
-40  -35  36  0
44  43  -40  0
-44  39  -40  0
52  51  47  0
52  47  48  0
-56  -55  51  0
-56  -51  -52  0
60  59  -55  0
60  55  56  0
-64  -63  60  0
-64  -63  59  0
-64  59  60  0
68  67  -64  0
-68  -67  63  0
-68  63  -64  0
-72  71  -68  0
72  71  67  0
76  -75  -72  0
76  71  72  0
80  -79  -76  0
80  75  -76  0
84  83  -80  0
-84  -83  -79  0
84  -79  -80  0
88  -87  84  0
88  -87  83  0
88  -83  84  0
92  91  88  0
-92  -91  -87  0
92  -87  88  0
96  -95  92  0
-96  -95  91  0
100  -99  96  0
100  99  -95  0
-104  -103  -100  0
104  103  -99  0
108  -107  104  0
108  103  104  0
112  111  107  0
112  -107  108  0
-116  -115  -112  0
-116  115  -111  0
116  -111  -112  0
120  -119  -116  0
124  123  120  0
124  -123  -119  0
-124  -119  120  0
128  127  -124  0
128  -127  123  0
-132  -131  -128  0
-136  -135  -132  0
-136  135  -131  0
-136  -131  -132  0
140  139  -136  0
140  -139  135  0
-140  135  136  0
-144  -143  -140  0
-144  -143  139  0
148  147  143  0
-148  143  -144  0
152  147  -148  0
-156  -155  -152  0
156  155  -151  0
-156  -151  -152  0
160  159  -156  0
